c ---- [ banner ] ------------------------------------------------------------
c
c Kissat SAT Solver
c 
c Copyright (c) 2021-2024 Armin Biere University of Freiburg
c Copyright (c) 2019-2021 Armin Biere Johannes Kepler University Linz
c 
c Version 4.0.1 43f02cf3e992cb44653b35e5cb26f93281552ae0
c gcc (Ubuntu 13.2.0-23ubuntu4) 13.2.0 -W -Wall -O3 -DNDEBUG
c Thu Sep 12 12:27:46 CEST 2024 Linux abryzen9 6.8.0-41-generic x86_64
c
c ---- [ parsing ] -----------------------------------------------------------
c
c opened and reading DIMACS file:
c
c   /data/artifact/AMulet2.0_artifact/exp4/cnf_resyn3_64/64_64_U1_WT_BK_Multgen_resyn3.cnf
c
c parsed 'p cnf 26568 117044' header
c closing input after reading 2317667 bytes (2 MB)
c finished parsing after 0.02 seconds
c
c ---- [ options ] -----------------------------------------------------------
c
c --stable=0                       (different from default '1')
c
c ---- [ solving ] -----------------------------------------------------------
c
c  seconds switched rate     size/glue tier1  binary           remaining
c         MB reductions conflicts size  tier2     irredundant
c          level restarts redundant glue  trail           variables
c
c *  0.02 10 0 0 0  0 0   0   0 0.0 0 0 0 0 0% 11379 105663 26565 100%
c (  0.03 11 0 0 0  0 0   0   0 0.0 0 0 0 0 0% 11379 105663 26565 100%
c .  0.03 11 0 0 0  0 0   0   0 0.0 0 0 0 0 0% 11375 105663 26565 100%
c c  0.08 17 0 0 0  0 0   0   0 0.0 0 0 0 0 0% 11392 105662 26563 100%
c d  0.08 17 0 0 0  0 0   0   0 0.0 0 0 0 0 0% 11388 105662 26563 100%
c f  0.17 16 0 0 0  0 0   0   0 0.0 0 0 0 0 0% 16099 98245 29229 110%
c e  0.28 25 0 0 0  0 0   0   0 0.0 0 0 0 0 0% 10646 106111 20571 77%
c )  0.28 25 0 0 0  0 0   0   0 0.0 0 0 0 0 0% 10646 106111 20571 77%
c {  0.29 25 0 0 0  0 0   0   0 0.0 0 0 2 6 0% 10646 106111 20571 77%
c -  0.44 25 116 0 1 257 32 1002 729 2.0 11 6 3 11 21% 10728 106109 20571 77%
c -  0.55 25 212 0 2 346 30 2002 1463 2.5 13 5 3 9 24% 10772 106106 20571 77%
c d  0.62 25 242 0 2 419 35 2506 1899 3.2 17 5 2 10 24% 10781 106104 20567 77%
c u  0.63 25 242 0 2 419 35 2506 1676 3.2 17 5 2 10 24% 10794 106104 20567 77%
c v  0.65 25 242 0 2 419 35 2506 1472 3.2 17 5 2 10 24% 10794 106104 20567 77%
c w  0.66 25 242 0 2 419 35 2506 1472 3.2 17 5 2 10 24% 10794 106104 20567 77%
c x  0.67 25 242 0 2 419 35 2506 1472 3.2 17 5 2 10 24% 10800 106085 20567 77%
c d  0.68 25 242 0 2 419 35 2506 1472 3.2 17 5 2 10 24% 10794 106085 20564 77%
c t  0.68 25 242 0 2 419 35 2506 1472 3.2 17 5 2 10 24% 10791 106085 20564 77%
c f  0.70 25 242 0 2 419 35 2506 1472 3.2 17 5 2 10 24% 11421 104825 21136 80%
c u  0.75 22 242 0 2 419 35 2506 1451 3.2 17 5 2 10 24% 11425 104825 21136 80%
c
c  seconds   switched   rate       size/glue tier1     binary           remaining
c         MB  reductions conflicts       size  tier2       irredundant
c           level restarts    redundant    glue    trail           variables
c
c v  0.76 23 242 0 2 419 35 2506 1288 3.2 17 5 2 10 24% 11425 104825 21136 80%
c w  0.79 25 242 0 2 419 35 2506 1284 3.2 17 5 2 10 24% 11425 104825 21136 80%
c =  0.83 25 242 0 2 419 35 2506 1284 3.2 17 5 2 10 24% 11587 104823 21055 79%
c d  0.84 25 242 0 2 419 35 2506 1284 3.2 17 5 2 10 24% 11422 104823 21054 79%
c t  0.85 25 242 0 2 419 35 2506 1284 3.2 17 5 2 10 24% 11421 104823 21054 79%
c f  0.86 25 242 0 2 419 35 2506 1284 3.2 17 5 2 10 24% 11449 104777 21069 79%
c -  0.98 26 327 0 3 523 36 3416 1823 3.3 17 5 3 10 25% 11506 104776 21069 79%
c -  1.23 26 372 0 4 739 36 5148 2886 3.2 19 6 2 9 24% 11607 104773 21069 79%
c -  1.66 26 350 0 5 1015 36 7148 4019 3.5 22 6 2 9 26% 11673 104770 21069 79%
c d  1.72 26 359 0 5 1033 36 7711 4487 3.5 22 6 2 9 25% 11664 104770 21054 79%
c u  1.74 26 359 0 5 1033 36 7711 3899 3.5 22 6 2 9 25% 11681 104770 21054 79%
c v  1.77 26 359 0 5 1033 36 7711 3367 3.5 22 6 2 9 25% 11681 104770 21054 79%
c w  1.80 26 359 0 5 1033 36 7711 3347 3.5 22 6 2 9 25% 11681 104770 21054 79%
c x  1.83 26 359 0 5 1033 36 7711 3347 3.5 22 6 2 9 25% 11684 104640 21054 79%
c =  1.93 26 359 0 5 1033 36 7711 3347 3.5 22 6 2 9 25% 12074 104640 20859 79%
c d  1.93 26 359 0 5 1033 36 7711 3337 3.5 22 6 2 9 25% 11637 104640 20859 79%
c t  1.94 26 359 0 5 1033 36 7711 3337 3.5 22 6 2 9 25% 11636 104640 20859 79%
c f  1.97 26 359 0 5 1033 36 7711 3337 3.5 22 6 2 9 25% 12266 103696 21173 80%
c u  2.00 26 359 0 5 1033 36 7711 3230 3.5 22 6 2 9 25% 12269 103696 21173 80%
c v  2.02 26 359 0 5 1033 36 7711 3139 3.5 22 6 2 9 25% 12269 103696 21173 80%
c
c  seconds   switched    rate       size/glue tier1    binary           remaining
c         MB  reductions  conflicts       size  tier2      irredundant
c           level  restarts    redundant    glue   trail           variables
c
c w  2.04 26 359 0 5 1033 36 7711 3132 3.5 22 6 2 9 25% 12269 103696 21173 80%
c =  2.12 26 359 0 5 1033 36 7711 3132 3.5 22 6 2 9 25% 12551 103696 21032 79%
c d  2.13 26 359 0 5 1033 36 7711 3132 3.5 22 6 2 9 25% 12155 103696 21032 79%
c t  2.14 26 359 0 5 1033 36 7711 3132 3.5 22 6 2 9 25% 12130 103696 21032 79%
c f  2.18 26 359 0 5 1033 36 7711 3132 3.5 22 6 2 9 25% 15152 99161 22543 85%
c -  2.46 26 336 0 6 1157 34 9384 4046 3.5 22 6 2 9 25% 15214 99160 22543 85%
c o  2.66 26 336 0 6 1252 35 10003 4602 3.9 25 6 2 9 26% 15233 99159 22543 85%
c -  2.95 26 328 0 7 1394 34 11833 5458 3.8 25 6 2 9 26% 15296 99155 22543 85%
c s  3.04 26 337 0 7 1418 33 12510 5955 3.8 24 6 2 9 26% 15342 97513 22543 85%
c e  3.14 26 337 0 7 1418 33 12510 5955 3.8 24 6 2 9 26% 14689 98017 21994 83%
c s  3.14 26 337 0 7 1418 33 12510 5955 3.8 24 6 2 9 26% 14691 97857 21994 83%
c e  3.15 26 337 0 7 1418 33 12510 5955 3.8 24 6 2 9 26% 14681 97864 21984 83%
c ^  3.15 26 337 0 7 1418 33 12510 5955 3.8 24 6 2 9 26% 14681 97864 21984 83%
c -  3.41 26 331 0 8 1551 33 14478 6563 3.8 24 6 2 9 25% 14746 97863 21984 83%
c c  3.68 28 322 0 8 1662 33 15791 7650 3.9 25 6 2 9 26% 14819 97763 21952 83%
c d  3.69 28 322 0 8 1662 33 15791 7625 3.9 25 6 2 9 26% 14436 97763 21764 82%
c u  3.71 28 322 0 8 1662 33 15791 6611 3.9 25 6 2 9 26% 14455 97763 21764 82%
c v  3.75 28 322 0 8 1662 33 15791 5706 3.9 25 6 2 9 26% 14455 97763 21764 82%
c w  3.82 28 322 0 8 1662 33 15791 5702 3.9 25 6 2 9 26% 14455 97763 21764 82%
c =  3.95 28 322 0 8 1662 33 15791 5702 3.9 25 6 2 9 26% 15019 97761 21482 81%
c
c  seconds   switched    rate        size/glue tier1    binary          remaining
c         MB  reductions   conflicts       size  tier2      irredundant
c           level  restarts     redundant    glue   trail          variables
c
c d  3.95 28 322 0 8 1662 33 15791 5690 3.9 25 6 2 9 26% 14231 97761 21477 81%
c t  3.97 28 322 0 8 1662 33 15791 5690 3.9 25 6 2 9 26% 14125 97761 21477 81%
c f  4.01 28 322 0 8 1662 33 15791 5690 3.9 25 6 2 9 26% 14180 97637 21509 81%
c u  4.04 28 322 0 8 1662 33 15791 5472 3.9 25 6 2 9 26% 14181 97637 21509 81%
c v  4.07 28 322 0 8 1662 33 15791 5331 3.9 25 6 2 9 26% 14181 97637 21509 81%
c w  4.13 28 322 0 8 1662 33 15791 5308 3.9 25 6 2 9 26% 14181 97637 21509 81%
c x  4.15 28 322 0 8 1662 33 15791 5308 3.9 25 6 2 9 26% 14182 97581 21509 81%
c =  4.30 28 322 0 8 1662 33 15791 5308 3.9 25 6 2 9 26% 14632 97581 21284 80%
c d  4.31 28 322 0 8 1662 33 15791 5282 3.9 25 6 2 9 26% 14134 97581 21284 80%
c t  4.32 28 322 0 8 1662 33 15791 5282 3.9 25 6 2 9 26% 14128 97581 21284 80%
c f  4.33 28 322 0 8 1662 33 15791 5282 3.9 25 6 2 9 26% 14130 97575 21286 80%
c -  4.52 28 327 0 9 1764 33 17308 5841 3.9 25 6 2 9 26% 14180 97575 21286 80%
c o  4.94 28 333 0 9 1983 32 20044 8192 4.0 26 6 2 9 25% 14269 97575 21286 80%
c -  5.02 28 330 0 10 2017 32 20312 7524 4.0 26 7 2 8 26% 14269 97575 21286 80%
c -  5.56 28 323 0 11 2312 33 23475 9020 4.1 27 7 2 8 26% 14384 97573 21286 80%
c s  5.88 28 331 0 11 2484 33 25016 10326 4.2 28 7 2 8 26% 14464 96063 21286 80%
c e  5.96 28 331 0 11 2484 33 25016 10326 4.2 28 7 2 8 26% 11198 100744 19427 73%
c s  5.97 28 331 0 11 2484 33 25016 10326 4.2 28 7 2 8 26% 11218 100557 19427 73%
c e  5.98 28 331 0 11 2484 33 25016 10326 4.2 28 7 2 8 26% 11215 100561 19423 73%
c ^  5.98 28 331 0 11 2484 33 25016 10326 4.2 28 7 2 8 26% 11215 100561 19423 73%
c
c  seconds   switched     rate        size/glue tier1    binary           remaining
c         MB   reductions   conflicts       size  tier2      irredundant
c           level   restarts     redundant    glue   trail           variables
c
c -  6.29 29 335 0 12 2611 33 26792 9068 4.3 28 7 2 8 26% 11273 100561 19423 73%
c c  6.37 29 337 0 12 2611 33 26922 9183 4.3 28 7 2 8 26% 11296 100429 19401 73%
c d  6.38 29 337 0 12 2611 33 26922 9154 4.3 28 7 2 8 26% 10825 100429 19148 72%
c u  6.44 29 337 0 12 2611 33 26922 7680 4.3 28 7 2 8 26% 10845 100429 19148 72%
c v  6.49 29 337 0 12 2611 33 26922 6909 4.3 28 7 2 8 26% 10846 100429 19148 72%
c w  6.50 29 337 0 12 2611 33 26922 6907 4.3 28 7 2 8 26% 10846 100429 19148 72%
c =  6.79 29 337 0 12 2611 33 26922 6907 4.3 28 7 2 8 26% 13580 100429 17781 67%
c d  6.80 29 337 0 12 2611 33 26922 6780 4.3 28 7 2 8 26% 10785 100429 17781 67%
c t  6.82 29 337 0 12 2611 33 26922 6780 4.3 28 7 2 8 26% 10672 100429 17781 67%
c f  6.90 29 337 0 12 2611 33 26922 6780 4.3 28 7 2 8 26% 10704 100321 17802 67%
c c  6.98 29 337 0 12 2611 33 26922 6780 4.3 28 7 2 8 26% 10708 100305 17800 67%
c d  6.98 29 337 0 12 2611 33 26922 6780 4.3 28 7 2 8 26% 10704 100305 17800 67%
c u  7.03 29 337 0 12 2611 33 26922 6288 4.3 28 7 2 8 26% 10707 100305 17800 67%
c v  7.06 29 337 0 12 2611 33 26922 6179 4.3 28 7 2 8 26% 10707 100305 17800 67%
c w  7.07 29 337 0 12 2611 33 26922 6175 4.3 28 7 2 8 26% 10707 100305 17800 67%
c =  7.35 29 337 0 12 2611 33 26922 6175 4.3 28 7 2 8 26% 14557 100305 15875 60%
c d  7.35 29 337 0 12 2611 33 26922 5982 4.3 28 7 2 8 26% 10630 100305 15874 60%
c t  7.37 29 337 0 12 2611 33 26922 5982 4.3 28 7 2 8 26% 10469 100305 15874 60%
c f  7.42 29 337 0 12 2611 33 26922 5982 4.3 28 7 2 8 26% 10494 100197 15898 60%
c -  8.13 29 317 0 13 2881 32 30260 8038 4.1 28 7 2 8 26% 10590 100196 15898 60%
c
c  seconds   switched     rate         size/glue tier1    binary           remaining
c         MB   reductions   conflicts        size  tier2      irredundant
c           level   restarts      redundant    glue   trail           variables
c
c -  9.40 29 304 0 14 3329 32 33865 10095 4.1 30 7 2 7 27% 10621 100195 15898 60%
c - 10.35 29 293 0 15 3644 32 37606 11749 4.0 30 7 2 7 27% 10708 100194 15898 60%
c o 11.03 29 284 0 15 3872 31 40161 14141 3.9 29 7 2 7 27% 10736 100194 15898 60%
c d 11.37 29 281 0 15 3990 31 41253 15156 3.9 29 7 2 7 27% 10682 100194 15868 60%
c u 11.45 29 281 0 15 3990 31 41253 12816 3.9 29 7 2 7 27% 10711 100194 15868 60%
c v 11.57 29 281 0 15 3990 31 41253 11117 3.9 29 7 2 7 27% 10711 100194 15868 60%
c w 11.74 29 281 0 15 3990 31 41253 11109 3.9 29 7 2 7 27% 10711 100194 15868 60%
c = 12.12 29 281 0 15 3990 31 41253 11109 3.9 29 7 2 7 27% 15167 100192 13640 51%
c d 12.13 29 281 0 15 3990 31 41253 10827 3.9 29 7 2 7 27% 10592 100192 13640 51%
c t 12.15 29 281 0 15 3990 31 41253 10827 3.9 29 7 2 7 27% 10130 100192 13640 51%
c f 12.21 29 281 0 15 3990 31 41253 10827 3.9 29 7 2 7 27% 10224 99818 13729 52%
c u 12.35 29 281 0 15 3990 31 41253 10133 3.9 29 7 2 7 27% 10236 99818 13729 52%
c v 12.42 29 281 0 15 3990 31 41253 9851 3.9 29 7 2 7 27% 10237 99818 13729 52%
c w 12.56 29 281 0 15 3990 31 41253 9828 3.9 29 7 2 7 27% 10237 99818 13729 52%
c x 12.62 29 281 0 15 3990 31 41253 9826 3.9 29 7 2 7 27% 10266 81970 13729 52%
c t 13.00 29 281 0 15 3990 31 41253 9826 3.9 29 7 2 7 27% 10257 81970 13729 52%
c - 13.05 29 280 0 16 3993 31 41478 8674 3.9 29 7 2 7 27% 10260 81970 13729 52%
c - 14.31 29 271 0 17 4491 30 45478 10904 4.0 30 8 2 7 28% 10307 81967 13729 52%
c i 15.22 29 264 0 17 4854 30 48567 13735 3.9 30 8 2 7 28% 10355 81967 13728 52%
c i 15.54 29 262 0 17 4995 30 49544 14658 3.9 30 8 2 7 28% 10364 81966 13727 52%
c
c  seconds   switched     rate         size/glue tier1    binary          remaining
c         MB   reductions   conflicts        size  tier2      irredundant
c           level   restarts      redundant    glue   trail          variables
c
c - 15.55 29 262 0 18 4995 30 49602 12967 3.9 30 8 2 7 28% 10357 81966 13727 52%
c s 15.88 29 257 0 18 5176 29 52127 15301 3.9 30 8 2 7 28% 10381 65234 13727 52%
c e 15.94 29 257 0 18 5176 29 52127 15301 3.9 30 8 2 7 28% 9810 66002 13279 50%
c 2 15.94 29 257 0 18 5176 29 52127 15301 3.9 30 8 2 7 28% 9789 66002 13279 50%
c s 15.94 29 257 0 18 5176 29 52127 15301 3.9 30 8 2 7 28% 9803 65683 13279 50%
c e 15.95 29 257 0 18 5176 29 52127 15301 3.9 30 8 2 7 28% 9762 65743 13262 50%
c ^ 15.95 29 257 0 18 5176 29 52127 15301 3.9 30 8 2 7 28% 9762 65743 13262 50%
c i 16.22 29 255 0 18 5393 29 53701 15920 3.8 30 8 2 7 28% 9784 65736 13261 50%
c - 16.22 29 255 0 19 5393 29 53844 13954 3.8 30 8 2 7 28% 9787 65726 13261 50%
c i 16.26 29 255 0 19 5421 29 54061 14155 3.8 30 8 2 7 28% 9792 65726 13260 50%
c - 16.85 29 245 0 20 5845 29 58203 15637 3.8 30 8 2 6 28% 9801 65722 13260 50%
c d 16.93 29 244 0 20 5898 29 58883 16277 3.8 30 8 2 6 28% 9811 65705 13257 50%
c d 16.93 29 244 0 20 5898 29 58883 16271 3.8 30 8 2 6 28% 9805 65704 13254 50%
c u 16.98 29 244 0 20 5898 29 58883 13334 3.8 30 8 2 6 28% 9850 65704 13251 50%
c v 17.04 29 244 0 20 5898 29 58883 11807 3.8 30 8 2 6 28% 9859 65704 13251 50%
c w 17.07 29 244 0 20 5898 29 58883 11777 3.8 30 8 2 6 28% 9859 65704 13251 50%
c d 17.08 29 244 0 20 5898 29 58883 11772 3.8 30 8 2 6 28% 9856 65678 13248 50%
c d 17.08 29 244 0 20 5898 29 58883 11772 3.8 30 8 2 6 28% 9854 65678 13247 50%
c t 17.09 29 244 0 20 5898 29 58883 11772 3.8 30 8 2 6 28% 9796 65678 13247 50%
c f 17.10 29 244 0 20 5898 29 58883 11772 3.8 30 8 2 6 28% 9820 65480 13274 50%
c
c  seconds   switched     rate         size/glue tier1    binary         remaining
c         MB   reductions   conflicts        size  tier2     irredundant
c           level   restarts      redundant    glue   trail         variables
c
c u 17.14 29 244 0 20 5898 29 58883 11049 3.8 30 8 2 6 28% 9844 65480 13274 50%
c v 17.18 29 244 0 20 5898 29 58883 10841 3.8 30 8 2 6 28% 9844 65480 13274 50%
c w 17.20 29 244 0 20 5898 29 58883 10822 3.8 30 8 2 6 28% 9844 65480 13274 50%
c x 17.32 29 244 0 20 5898 29 58883 10807 3.8 30 8 2 6 28% 9952 63870 13273 50%
c = 17.60 29 244 0 20 5898 29 58883 10807 3.8 30 8 2 6 28% 9996 63817 13243 50%
c d 17.61 29 244 0 20 5898 29 58883 10788 3.8 30 8 2 6 28% 9924 63812 13237 50%
c d 17.61 29 244 0 20 5898 29 58883 10788 3.8 30 8 2 6 28% 9920 63812 13235 50%
c t 17.62 29 244 0 20 5898 29 58883 10788 3.8 30 8 2 6 28% 9840 63812 13234 50%
c i 17.63 29 244 0 20 5898 29 58883 10788 3.8 30 8 2 6 28% 9839 63812 13234 50%
c i 17.74 29 242 0 20 5974 29 59709 11589 3.7 30 8 2 6 29% 9842 63812 13233 50%
c - 18.17 29 236 0 21 6293 28 62679 12537 3.7 29 8 2 6 29% 9842 63805 13233 50%
c i 18.31 29 234 0 21 6394 28 63460 13280 3.7 30 8 2 6 29% 9849 63805 13232 50%
c i 18.33 29 233 0 21 6406 28 63655 13461 3.7 30 8 2 6 29% 9852 63805 13231 50%
c i 18.40 29 232 0 21 6464 28 64415 14151 3.7 29 8 2 6 29% 9862 63805 13230 50%
c i 18.67 29 227 0 21 6641 27 66764 16366 3.6 29 8 2 7 29% 9872 63803 13228 50%
c - 18.74 29 226 0 22 6690 27 67261 14615 3.6 29 8 2 6 29% 9859 63803 13228 50%
c i 18.81 29 225 0 22 6740 27 67754 15082 3.6 29 8 2 6 29% 9863 63803 13225 50%
c i 18.92 29 224 0 22 6826 27 68396 15644 3.6 29 8 2 6 29% 9909 63803 13224 50%
c i 19.01 29 222 0 22 6877 27 68966 16182 3.6 29 8 2 6 29% 9912 63802 13223 50%
c i 19.05 29 221 0 22 6898 27 69533 16718 3.6 29 8 2 6 29% 9914 63802 13222 50%
c
c  seconds   switched     rate         size/glue tier1    binary         remaining
c         MB   reductions   conflicts        size  tier2     irredundant
c           level   restarts      redundant    glue   trail         variables
c
c i 19.08 29 220 0 22 6923 27 69739 16878 3.6 29 8 2 6 29% 9926 63800 13221 50%
c o 19.12 29 219 0 22 6945 26 70192 17321 3.6 29 8 2 6 29% 9928 63800 13221 50%
c i 19.16 29 218 0 22 6981 26 70351 17462 3.6 29 8 2 6 29% 9931 63800 13220 50%
c i 19.30 29 215 0 22 7073 26 71772 18768 3.5 28 8 2 6 29% 9960 63799 13219 50%
c - 19.32 29 215 0 23 7076 26 71951 16214 3.5 28 8 2 6 29% 9886 63799 13219 50%
c i 19.32 29 215 0 23 7077 26 71958 16219 3.5 28 8 2 6 29% 9887 63799 13218 50%
c i 19.36 29 214 0 23 7095 26 72297 16541 3.5 28 8 2 6 29% 9890 63799 13217 50%
c i 19.37 29 214 0 23 7103 26 72322 16565 3.5 28 8 2 6 29% 9890 63799 13215 50%
c i 19.41 29 212 0 23 7147 26 72837 17019 3.5 28 8 2 6 29% 9898 63799 13213 50%
c i 19.42 29 212 0 23 7150 26 73009 17171 3.5 28 8 2 6 29% 9904 63799 13212 50%
c i 19.45 29 210 0 23 7167 26 73488 17590 3.5 28 8 2 6 29% 9927 63799 13211 50%
c i 19.49 29 207 0 23 7196 25 74630 18617 3.5 28 8 2 6 28% 9938 63798 13210 50%
c i 19.50 29 206 0 23 7202 25 74899 18860 3.5 28 8 2 6 28% 9940 63798 13209 50%
c i 19.55 29 204 0 23 7226 25 75646 19554 3.4 28 8 2 6 28% 9950 63798 13208 50%
c i 19.57 29 201 0 23 7226 24 76554 20385 3.4 27 8 2 6 28% 9953 63798 13207 50%
c - 19.58 29 200 0 24 7231 24 76746 17463 3.4 27 8 2 6 28% 9929 63798 13207 50%
c i 19.58 29 200 0 24 7233 24 76775 17490 3.4 27 8 2 6 28% 9929 63798 13202 50%
c i 19.59 29 200 0 24 7240 24 76801 17507 3.4 27 8 2 6 28% 9931 63798 13201 50%
c i 19.59 29 200 0 24 7241 24 76868 17561 3.4 27 8 2 6 28% 9934 63798 13200 50%
c i 19.60 29 200 0 24 7257 24 76961 17647 3.4 27 8 2 6 28% 9937 63798 13193 50%
c
c  seconds   switched     rate         size/glue tier1    binary         remaining
c         MB   reductions   conflicts        size  tier2     irredundant
c           level   restarts      redundant    glue   trail         variables
c
c i 19.60 29 200 0 24 7257 24 76962 17647 3.4 27 8 2 6 28% 9937 63798 13191 50%
c i 19.60 29 200 0 24 7257 24 76966 17649 3.4 27 8 2 6 28% 9937 63798 13187 50%
c i 19.61 29 199 0 24 7259 24 77235 17863 3.4 27 8 2 6 28% 9945 63798 13181 50%
c i 19.62 29 199 0 24 7260 24 77369 17959 3.4 27 8 2 6 28% 9951 63798 13180 50%
c } 19.62 29 199 0 24 7260 24 77371 17959 3.4 27 8 2 6 28% 9951 63798 13139 49%
c 0 19.62 29 199 0 24 7260 24 77371 17959 3.4 27 8 2 6 28% 9951 63798 13139 49%
c
c ---- [ result ] ------------------------------------------------------------
c
s UNSATISFIABLE
c
c ---- [ profiling ] ---------------------------------------------------------
c
c          14.09   71.82 %  search
c          14.09   71.82 %  focused
c           5.24   26.69 %  simplify
c           5.05   25.72 %  probe
c           2.09   10.66 %  sweep
c           1.73    8.81 %  vivify
c           0.46    2.33 %  factor
c           0.33    1.69 %  congruence
c           0.33    1.68 %  eliminate
c           0.31    1.59 %  substitute
c           0.25    1.29 %  preprocess
c           0.13    0.67 %  reduce
c           0.11    0.55 %  fastel
c           0.09    0.44 %  transitive
c           0.06    0.32 %  subsume
c           0.04    0.21 %  backbone
c           0.02    0.10 %  lucky
c           0.02    0.09 %  parse
c =============================================
c          19.62  100.00 %  total
c
c ---- [ statistics ] --------------------------------------------------------
c
c chronological:                         3524                5 %  conflicts
c conflicts:                            77371             3943.23 per second
c congruent:                               58                0 %  variables
c decisions:                          1909528               24.68 per conflict
c eliminated:                           11543               43 %  variables
c factored:                              5273               20 %  variables
c fast_eliminated:                       8658               75 %  eliminated
c fast_strengthened:                        7                1 %  per strengthened
c fast_subsumed:                           30                0 %  per subsumed
c iterations:                              35                0 %  variables
c propagations:                      82428349          4200981    per second
c reductions:                              24             3224    interval
c reordered:                                4            19343    interval
c restarts:                              7260               11    interval
c strengthened:                           581                0 %  checks
c substituted:                           7042               27 %  variables
c subsumed:                             20530                1 %  checks
c switched:                                 0                0    interval
c vivified:                             42564               19 %  checks
c
c ---- [ glue usage ] --------------------------------------------------------
c
c focused glue 2 used 35261 clauses 24.59% accumulated 73.35% tier1
c focused glue 3 used 10544 clauses  7.35% accumulated 80.71%
c focused glue 4 used  6306 clauses  4.40% accumulated 85.10%
c focused glue 5 used  4141 clauses  2.89% accumulated 87.99%
c focused glue 6 used  3025 clauses  2.11% accumulated 90.10% tier2
c
c ---- [ resources ] ---------------------------------------------------------
c
c maximum-resident-set-size:         30044160 bytes         29 MB
c process-time:                            20s              19.62 seconds
c
c ---- [ shutting down ] -----------------------------------------------------
c
c exit 20
